 $CONTRL RUNTYP=energy SCFTYP=RHF                               
  MAXIT=200 ICHARG=0 MULT=1 d5=.t. nzvar=462                    
  exetyp=run coord=unique                                          
 $END                                                           
 $SYSTEM TIMLIM=3600000 MWORDS=350 $END                                                 
 $smp smppar=.t. load=0 call64=.t. $end                         
 $p2p p2p=.t. dlb=.t. mixed=.t. $end                            
 $trans mptran=2 dirtrf=.t. aoints=dist altpar=.t. mode=112 $end
 $BASIS  GBASIS=n31 ngauss=6 NDFUNC=1 NPFUNC=1 $END             
 $SCF DIRSCF=.TRUE. SOSCF=.f. $END